6 
7 
5 
7 
6 
6 
6 
6 
5 
7 
5 
1 
6 
5 
2 
4 
4 
3 
5 
10 
6 
2 
7 
6 
8 
2 
11 
6 
3 
3 
6 
5 
6 
7 
10 
3 
3 
5 
6 
3 
2 
3 
4 
5 
7 
7 
8 
6 
2 
7 
8 
5 
7 
3 
7 
6 
4 
1 
5 
2 
3 
7 
1 
4 
5 
7 
6 
5 
6 
7 
2 
6 
4 
6 
6 
3 
10 
10 
4 
8 
8 
7 
4 
10 
3 
5 
5 
5 
2 
4 
6 
4 
7 
5 
6 
4 
5 
5 
5 
7 
